(set-logic QF_UF)
(declare-fun A0 () Bool)
(declare-fun A1 () Bool)
(declare-fun A2 () Bool)
(declare-fun A3 () Bool)
(declare-fun A4 () Bool)
(declare-fun A5 () Bool)
(declare-fun A6 () Bool)
(declare-fun A7 () Bool)
(declare-fun A8 () Bool)
(declare-fun A9 () Bool)
(declare-fun A10 () Bool)
(declare-fun A11 () Bool)
(declare-fun A12 () Bool)
(declare-fun A13 () Bool)
(declare-fun A14 () Bool)
(declare-fun A15 () Bool)
(declare-fun A16 () Bool)
(declare-fun A18 () Bool)
(declare-fun A19 () Bool)
(declare-fun A21 () Bool)
(declare-fun A22 () Bool)
(declare-fun A24 () Bool)
(declare-fun A25 () Bool)
(declare-fun A26 () Bool)
(declare-fun A27 () Bool)
(declare-fun A28 () Bool)
(assert (let ((.def_0 (or A26 A4))) (let ((.def_1 (not A12))) (let ((.def_2 (or .def_1 A26))) (let ((.def_3 (not .def_2))) (let ((.def_4 (or .def_3 .def_0))) (let ((.def_5 (= A16 A13))) (let ((.def_6 (not .def_5))) (let ((.def_7 (not A4))) (let ((.def_8 (or A28 .def_7))) (let ((.def_9 (not .def_8))) (let ((.def_10 (or .def_9 .def_6))) (let ((.def_11 (not .def_10))) (let ((.def_12 (and .def_11 .def_4))) (let ((.def_13 (not A5))) (let ((.def_14 (and .def_13 A25))) (let ((.def_15 (not A6))) (let ((.def_16 (and A2 .def_15))) (let ((.def_17 (not .def_16))) (let ((.def_18 (or .def_17 .def_14))) (let ((.def_19 (not .def_18))) (let ((.def_20 (not A25))) (let ((.def_21 (or .def_20 .def_13))) (let ((.def_22 (not A14))) (let ((.def_23 (not A22))) (let ((.def_24 (and .def_23 .def_22))) (let ((.def_25 (not .def_24))) (let ((.def_26 (or .def_25 .def_21))) (let ((.def_27 (and .def_26 .def_19))) (let ((.def_28 (and .def_27 .def_12))) (let ((.def_29 (not A16))) (let ((.def_30 (or A19 .def_29))) (let ((.def_31 (and A24 .def_1))) (let ((.def_32 (not .def_31))) (let ((.def_33 (= .def_32 .def_30))) (let ((.def_34 (not .def_33))) (let ((.def_35 (or A9 A1))) (let ((.def_36 (and A22 A0))) (let ((.def_37 (or .def_36 .def_35))) (let ((.def_38 (not .def_37))) (let ((.def_39 (or .def_38 .def_34))) (let ((.def_40 (or A21 .def_15))) (let ((.def_41 (not .def_40))) (let ((.def_42 (not A7))) (let ((.def_43 (and .def_23 .def_42))) (let ((.def_44 (or .def_43 .def_41))) (let ((.def_45 (not .def_44))) (let ((.def_46 (or .def_7 .def_7))) (let ((.def_47 (and A16 A27))) (let ((.def_48 (not .def_47))) (let ((.def_49 (and .def_48 .def_46))) (let ((.def_50 (not .def_49))) (let ((.def_51 (and .def_50 .def_45))) (let ((.def_52 (or .def_51 .def_39))) (let ((.def_53 (not .def_52))) (let ((.def_54 (and .def_53 .def_28))) (let ((.def_55 (and .def_23 A6))) (let ((.def_56 (and .def_13 .def_20))) (let ((.def_57 (= .def_56 .def_55))) (let ((.def_58 (not .def_57))) (let ((.def_59 (not A10))) (let ((.def_60 (and .def_59 A24))) (let ((.def_61 (not A18))) (let ((.def_62 (and A4 .def_61))) (let ((.def_63 (not .def_62))) (let ((.def_64 (or .def_63 .def_60))) (let ((.def_65 (or .def_64 .def_58))) (let ((.def_66 (not .def_65))) (let ((.def_67 (or .def_20 .def_23))) (let ((.def_68 (not .def_67))) (let ((.def_69 (and A26 .def_42))) (let ((.def_70 (and .def_69 .def_68))) (let ((.def_71 (not .def_70))) (let ((.def_72 (and A8 .def_20))) (let ((.def_73 (not .def_72))) (let ((.def_74 (and A2 A10))) (let ((.def_75 (not .def_74))) (let ((.def_76 (and .def_75 .def_73))) (let ((.def_77 (not .def_76))) (let ((.def_78 (or .def_77 .def_71))) (let ((.def_79 (and .def_78 .def_66))) (let ((.def_80 (not .def_79))) (let ((.def_81 (not A11))) (let ((.def_82 (or .def_81 A27))) (let ((.def_83 (not .def_82))) (let ((.def_84 (not A27))) (let ((.def_85 (or A28 .def_84))) (let ((.def_86 (and .def_85 .def_83))) (let ((.def_87 (not A24))) (let ((.def_88 (or .def_87 A0))) (let ((.def_89 (not .def_88))) (let ((.def_90 (and .def_15 A0))) (let ((.def_91 (not .def_90))) (let ((.def_92 (and .def_91 .def_89))) (let ((.def_93 (not .def_92))) (let ((.def_94 (and .def_93 .def_86))) (let ((.def_95 (not .def_94))) (let ((.def_96 (or A16 A15))) (let ((.def_97 (not A26))) (let ((.def_98 (= .def_87 .def_97))) (let ((.def_99 (or .def_98 .def_96))) (let ((.def_100 (or .def_81 A9))) (let ((.def_101 (and .def_1 A3))) (let ((.def_102 (or .def_101 .def_100))) (let ((.def_103 (and .def_102 .def_99))) (let ((.def_104 (not .def_103))) (let ((.def_105 (or .def_104 .def_95))) (let ((.def_106 (not .def_105))) (let ((.def_107 (and .def_106 .def_80))) (let ((.def_108 (or .def_107 .def_54))) (let ((.def_109 (not .def_108))) .def_109)))))))))))))))))))))))))))))))))))))))))))))))))))))))))))))))))))))))))))))))))))))))))))))))))))))))))))))))
(check-sat)
